p cnf 86 516
-43 -40 -37 0
-43 -40 -3 0
-43 -6 -3 0
-42 -39 -36 0
-42 -39 -2 0
-42 -5 -2 0
-41 -38 -35 0
-41 -38 -1 0
-41 -4 -1 0
-40 -37 -34 0
-39 -36 -33 0
-38 -35 -32 0
-37 -34 -31 0
-36 -33 -30 0
-35 -32 -29 0
-34 -31 -28 0
-33 -30 -27 0
-32 -29 -26 0
-31 -28 -25 0
-30 -27 -24 0
-29 -26 -23 0
-28 -25 -22 0
-27 -24 -21 0
-26 -23 -20 0
-25 -22 -19 0
-24 -21 -18 0
-23 -20 -17 0
-22 -19 -16 0
-21 -18 -15 0
-20 -17 -14 0
-19 -16 -13 0
-18 -15 -12 0
-17 -14 -11 0
-16 -13 -10 0
-15 -12 -9 0
-14 -11 -8 0
-13 -10 -7 0
-12 -9 -6 0
-11 -8 -5 0
-10 -7 -4 0
-9 -6 -3 0
-8 -5 -2 0
-7 -4 -1 0
1 14 0
1 20 0
1 25 0
1 31 0
1 50 0
1 50 68 0
1 55 0
1 55 73 0
1 68 0
1 73 0
2 15 0
2 21 0
2 26 0
2 32 0
2 51 0
2 51 69 0
2 56 0
2 56 74 0
2 69 0
2 74 0
3 16 0
3 22 0
3 27 0
3 33 0
3 52 0
3 52 70 0
3 57 0
3 57 75 0
3 70 0
3 75 0
4 17 0
4 23 0
4 28 0
4 34 0
4 53 0
4 53 71 0
4 58 0
4 58 76 0
4 71 0
4 76 0
5 18 0
5 24 0
5 29 0
5 35 0
5 54 0
5 54 72 0
5 59 0
5 59 77 0
5 72 0
5 77 0
6 19 0
6 25 0
6 30 0
6 36 0
6 55 0
6 55 73 0
6 60 0
6 60 78 0
6 73 0
6 78 0
7 20 0
7 26 0
7 31 0
7 37 0
7 56 0
7 56 74 0
7 61 0
7 61 79 0
7 74 0
7 79 0
8 21 0
8 27 0
8 32 0
8 38 0
8 57 0
8 57 75 0
8 62 0
8 62 80 0
8 75 0
8 80 0
9 22 0
9 28 0
9 33 0
9 39 0
9 58 0
9 58 76 0
9 63 0
9 63 81 0
9 76 0
9 81 0
10 23 0
10 29 0
10 34 0
10 40 0
10 59 0
10 59 77 0
10 64 0
10 64 82 0
10 77 0
10 82 0
11 24 0
11 30 0
11 35 0
11 41 0
11 60 0
11 60 78 0
11 65 0
11 65 83 0
11 78 0
11 83 0
12 25 0
12 31 0
12 36 0
12 42 0
12 61 0
12 61 79 0
12 66 0
12 66 84 0
12 79 0
12 84 0
13 26 0
13 32 0
13 37 0
13 43 0
13 62 0
13 62 80 0
13 67 0
13 67 85 0
13 80 0
13 85 0
14 27 0
14 33 0
14 38 0
14 63 0
14 63 81 0
14 68 0
14 68 86 0
14 81 0
14 86 0
15 28 0
15 34 0
15 39 0
15 44 0
15 44 69 0
15 64 0
15 64 82 0
15 69 0
15 82 0
16 29 0
16 35 0
16 40 0
16 45 0
16 45 70 0
16 65 0
16 65 83 0
16 70 0
16 83 0
17 30 0
17 36 0
17 41 0
17 46 0
17 46 71 0
17 66 0
17 66 84 0
17 71 0
17 84 0
18 31 0
18 37 0
18 42 0
18 47 0
18 47 72 0
18 67 0
18 67 85 0
18 72 0
18 85 0
19 32 0
19 38 0
19 43 0
19 48 0
19 48 73 0
19 68 0
19 68 86 0
19 73 0
19 86 0
20 33 0
20 39 0
20 44 0
20 44 69 0
20 49 0
20 49 74 0
20 69 0
20 74 0
21 34 0
21 40 0
21 45 0
21 45 70 0
21 50 0
21 50 75 0
21 70 0
21 75 0
22 35 0
22 41 0
22 46 0
22 46 71 0
22 51 0
22 51 76 0
22 71 0
22 76 0
23 36 0
23 42 0
23 47 0
23 47 72 0
23 52 0
23 52 77 0
23 72 0
23 77 0
24 37 0
24 43 0
24 48 0
24 48 73 0
24 53 0
24 53 78 0
24 73 0
24 78 0
25 38 0
25 49 0
25 49 74 0
25 54 0
25 54 79 0
25 74 0
25 79 0
26 39 0
26 50 0
26 50 75 0
26 55 0
26 55 80 0
26 75 0
26 80 0
27 40 0
27 51 0
27 51 76 0
27 56 0
27 56 81 0
27 76 0
27 81 0
28 41 0
28 52 0
28 52 77 0
28 57 0
28 57 82 0
28 77 0
28 82 0
29 42 0
29 53 0
29 53 78 0
29 58 0
29 58 83 0
29 78 0
29 83 0
30 43 0
30 54 0
30 54 79 0
30 59 0
30 59 84 0
30 79 0
30 84 0
31 55 0
31 55 80 0
31 60 0
31 60 85 0
31 80 0
31 85 0
32 56 0
32 56 81 0
32 61 0
32 61 86 0
32 81 0
32 86 0
33 44 0
33 44 62 0
33 57 0
33 57 82 0
33 62 0
33 82 0
34 45 0
34 45 63 0
34 58 0
34 58 83 0
34 63 0
34 83 0
35 46 0
35 46 64 0
35 59 0
35 59 84 0
35 64 0
35 84 0
36 47 0
36 47 65 0
36 60 0
36 60 85 0
36 65 0
36 85 0
37 48 0
37 48 66 0
37 61 0
37 61 86 0
37 66 0
37 86 0
38 44 0
38 44 62 0
38 49 0
38 49 67 0
38 62 0
38 67 0
39 45 0
39 45 63 0
39 50 0
39 50 68 0
39 63 0
39 68 0
40 46 0
40 46 64 0
40 51 0
40 51 69 0
40 64 0
40 69 0
41 47 0
41 47 65 0
41 52 0
41 52 70 0
41 65 0
41 70 0
42 48 0
42 48 66 0
42 53 0
42 53 71 0
42 66 0
42 71 0
43 49 0
43 49 67 0
43 54 0
43 54 72 0
43 67 0
43 72 0
44 0
44 58 0
44 62 0
44 69 0
44 73 0
45 0
45 59 0
45 63 0
45 70 0
45 74 0
46 0
46 60 0
46 64 0
46 71 0
46 75 0
47 0
47 61 0
47 65 0
47 72 0
47 76 0
48 0
48 62 0
48 66 0
48 73 0
48 77 0
49 0
49 63 0
49 67 0
49 74 0
49 78 0
50 0
50 64 0
50 68 0
50 75 0
50 79 0
51 0
51 65 0
51 69 0
51 76 0
51 80 0
52 0
52 66 0
52 70 0
52 77 0
52 81 0
53 0
53 67 0
53 71 0
53 78 0
53 82 0
54 0
54 68 0
54 72 0
54 79 0
54 83 0
55 0
55 69 0
55 73 0
55 80 0
55 84 0
56 0
56 70 0
56 74 0
56 81 0
56 85 0
57 0
57 71 0
57 75 0
57 82 0
57 86 0
58 0
58 72 0
58 76 0
58 83 0
59 0
59 73 0
59 77 0
59 84 0
60 0
60 74 0
60 78 0
60 85 0
61 0
61 75 0
61 79 0
61 86 0
62 0
62 76 0
62 80 0
63 0
63 77 0
63 81 0
64 0
64 78 0
64 82 0
65 0
65 79 0
65 83 0
66 0
66 80 0
66 84 0
67 0
67 81 0
67 85 0
68 0
68 82 0
68 86 0
69 0
69 83 0
70 0
70 84 0
71 0
71 85 0
72 0
72 86 0
73 0
74 0
75 0
76 0
77 0
78 0
79 0
80 0
81 0
82 0
83 0
84 0
85 0
86 0
